(set-logic QF_S)
(declare-fun var_0xINPUT_198738 () String)
(assert (and (= (len var_0xINPUT_198738) 0) (= (len var_0xINPUT_198738) 0) (not (= var_0xINPUT_198738 "A9jaaDKZbG"))))
(check-sat var_0xINPUT_198738)